Homework/HW4/VehicleProduction.gms.log

--- Job VehicleProduction.gms Start 11/29/25 15:09:40 51.1.0 2d039df5 DAX-DAC arm 64bit/macOS
--- Applying:
    /Library/Frameworks/GAMS.framework/Versions/51/Resources/gmsprmun.txt
--- GAMS Parameters defined
    Input "/Users/anabelle/Documents/Systems Analysis/CEE-5410-Myers/Homework/HW4/VehicleProduction.gms"
    PageSize 0
    ScrDir "/Users/anabelle/Documents/Systems Analysis/CEE-5410-Myers/Homework/HW4/225a/"
    SysDir /Library/Frameworks/GAMS.framework/Versions/51/Resources/
    LogOption 3
    AppendLog 1
    ErrMsg 1
    ErrorLog 99
    IDE 1
    LstTitleLeftAligned 1
Licensee: GAMS Demo, for EULA and demo limitations see   G250826+0003Cc-GEN
          https://www.gams.com/latest/docs/UG%5FLicense.html         DC0000
          /Library/Frameworks/GAMS.framework/Versions/51/Resources/gamslice.txt
          v:2                                                              
          Demo license for demonstration and instructional purposes only
System information: 8 physical cores and 8 Gb physical memory detected
GAMS 51.1.0   Copyright (C) 1987-2025 GAMS Development. All rights reserved
--- Starting compilation
--- VehicleProduction.gms(62) 3 Mb
--- Starting execution: elapsed 0:00:00.004
--- VehicleProduction.gms(55) 4 Mb
--- Generating LP model PRODUCING
--- VehicleProduction.gms(60) 4 Mb
---   5 rows  3 columns  10 non-zeroes
--- Range statistics (absolute non-zero finite values)
--- RHS       [min, max] : [ 6.000E+03, 1.800E+04] - Zero values observed as well
--- Bound     [min, max] : [        NA,        NA] - Zero values observed as well
--- Matrix    [min, max] : [ 1.000E+00, 1.100E+02]
--- Executing CPLEX (Solvelink=2): elapsed 0:00:00.009

IBM ILOG CPLEX   51.1.0 2d039df5 Sep 13, 2025          DAC arm 64bit/macOS    

*** This solver runs with a demo license. No commercial use.

*** Error Cannot open parameter file "/Users/anabelle/Documents/Systems Analysis/CEE-5410-Myers/Homework/HW4/cplex.opt"
*** Error Error code = 2; No such file or directory

--- GMO setup time: 0.00s
--- GMO memory 0.50 Mb (peak 0.50 Mb)
--- Dictionary memory 0.00 Mb
--- Cplex 22.1.2.0 link memory 0.00 Mb (peak 0.00 Mb)
--- Starting Cplex

Version identifier: 22.1.2.0 | 2024-12-02 | 8bd2200c8
CPXPARAM_Advance                                 0
CPXPARAM_Simplex_Display                         2
CPXPARAM_MIP_Display                             4
CPXPARAM_MIP_Pool_Capacity                       0
3036                                             1
CPXPARAM_MIP_Tolerances_AbsMIPGap                0
Tried aggregator 1 time.
LP Presolve eliminated 1 rows and 1 columns.
Reduced LP has 3 rows, 2 columns, and 6 nonzeros.
Presolve time = 0.00 sec. (0.00 ticks)

Iteration      Dual Objective            In Variable           Out Variable
     1  I            0.000000              X(Sedans)RES_CONSTRAIN(Row slack
     2         1140000.000000              X(Trucks)RES_CONSTRAIN(Tan slack
     3         1080000.000000RES_CONSTRAIN(Tan slackRES_CONSTRAIN(Veh slack

--- LP status (1): optimal.
--- Cplex Time: 0.00sec (det. 0.01 ticks)


Optimal solution found
Objective:      1080000.000000

--- Reading solution for model PRODUCING
*** Status: Normal completion
--- Job VehicleProduction.gms Stop 11/29/25 15:09:40 elapsed 0:00:00.049
